============================[ Problem Statistics ]=============================|                                                                             ||  Number of variables:          4242                                         ||  Number of clauses:            9792                                         ||  Parse time:                   0.20 s                                       ||                                                                             |============================[ Search Statistics ]==============================| Conflicts |          ORIGINAL         |          LEARNT          | Progress ||           |    Vars  Clauses Literals |    Limit  Clauses Lit/Cl |          |===============================================================================|       100 |    1591     5997   288628 |     2198      100     53 | 62.501 % |===============================================================================restarts              : 2conflicts             : 115            (341 /sec)decisions             : 286            (0.00 % random) (849 /sec)propagations          : 9881           (29320 /sec)conflict literals     : 6601           (95.76 % deleted)CPU time              : 0.337 sSATISFIABLE